Minimize
 obj: 0 X_0_1
Subject To
 out_0:
  + 1 X_0_1 + 1 X_0_2 + 1 X_0_3 + 1 X_0_4 + 1 X_0_5 + 1 X_0_6 + 1 X_0_7 + 1 X_0_8
  + 1 X_0_9
  = 1
 in_0:
  + 1 X_1_0 + 1 X_2_0 + 1 X_3_0 + 1 X_4_0 + 1 X_5_0 + 1 X_6_0 + 1 X_7_0 + 1 X_8_0
  + 1 X_9_0
  = 1
 out_1:
  + 1 X_1_0 + 1 X_1_2 + 1 X_1_3 + 1 X_1_4 + 1 X_1_5 + 1 X_1_6 + 1 X_1_7 + 1 X_1_8
  + 1 X_1_9
  = 1
 in_1:
  + 1 X_0_1 + 1 X_2_1 + 1 X_3_1 + 1 X_4_1 + 1 X_5_1 + 1 X_6_1 + 1 X_7_1 + 1 X_8_1
  + 1 X_9_1
  = 1
 out_2:
  + 1 X_2_0 + 1 X_2_1 + 1 X_2_3 + 1 X_2_4 + 1 X_2_5 + 1 X_2_6 + 1 X_2_7 + 1 X_2_8
  + 1 X_2_9
  = 1
 in_2:
  + 1 X_0_2 + 1 X_1_2 + 1 X_3_2 + 1 X_4_2 + 1 X_5_2 + 1 X_6_2 + 1 X_7_2 + 1 X_8_2
  + 1 X_9_2
  = 1
 out_3:
  + 1 X_3_0 + 1 X_3_1 + 1 X_3_2 + 1 X_3_4 + 1 X_3_5 + 1 X_3_6 + 1 X_3_7 + 1 X_3_8
  + 1 X_3_9
  = 1
 in_3:
  + 1 X_0_3 + 1 X_1_3 + 1 X_2_3 + 1 X_4_3 + 1 X_5_3 + 1 X_6_3 + 1 X_7_3 + 1 X_8_3
  + 1 X_9_3
  = 1
 out_4:
  + 1 X_4_0 + 1 X_4_1 + 1 X_4_2 + 1 X_4_3 + 1 X_4_5 + 1 X_4_6 + 1 X_4_7 + 1 X_4_8
  + 1 X_4_9
  = 1
 in_4:
  + 1 X_0_4 + 1 X_1_4 + 1 X_2_4 + 1 X_3_4 + 1 X_5_4 + 1 X_6_4 + 1 X_7_4 + 1 X_8_4
  + 1 X_9_4
  = 1
 out_5:
  + 1 X_5_0 + 1 X_5_1 + 1 X_5_2 + 1 X_5_3 + 1 X_5_4 + 1 X_5_6 + 1 X_5_7 + 1 X_5_8
  + 1 X_5_9
  = 1
 in_5:
  + 1 X_0_5 + 1 X_1_5 + 1 X_2_5 + 1 X_3_5 + 1 X_4_5 + 1 X_6_5 + 1 X_7_5 + 1 X_8_5
  + 1 X_9_5
  = 1
 out_6:
  + 1 X_6_0 + 1 X_6_1 + 1 X_6_2 + 1 X_6_3 + 1 X_6_4 + 1 X_6_5 + 1 X_6_7 + 1 X_6_8
  + 1 X_6_9
  = 1
 in_6:
  + 1 X_0_6 + 1 X_1_6 + 1 X_2_6 + 1 X_3_6 + 1 X_4_6 + 1 X_5_6 + 1 X_7_6 + 1 X_8_6
  + 1 X_9_6
  = 1
 out_7:
  + 1 X_7_0 + 1 X_7_1 + 1 X_7_2 + 1 X_7_3 + 1 X_7_4 + 1 X_7_5 + 1 X_7_6 + 1 X_7_8
  + 1 X_7_9
  = 1
 in_7:
  + 1 X_0_7 + 1 X_1_7 + 1 X_2_7 + 1 X_3_7 + 1 X_4_7 + 1 X_5_7 + 1 X_6_7 + 1 X_8_7
  + 1 X_9_7
  = 1
 out_8:
  + 1 X_8_0 + 1 X_8_1 + 1 X_8_2 + 1 X_8_3 + 1 X_8_4 + 1 X_8_5 + 1 X_8_6 + 1 X_8_7
  + 1 X_8_9
  = 1
 in_8:
  + 1 X_0_8 + 1 X_1_8 + 1 X_2_8 + 1 X_3_8 + 1 X_4_8 + 1 X_5_8 + 1 X_6_8 + 1 X_7_8
  + 1 X_9_8
  = 1
 out_9:
  + 1 X_9_0 + 1 X_9_1 + 1 X_9_2 + 1 X_9_3 + 1 X_9_4 + 1 X_9_5 + 1 X_9_6 + 1 X_9_7
  + 1 X_9_8
  = 1
 in_9:
  + 1 X_0_9 + 1 X_1_9 + 1 X_2_9 + 1 X_3_9 + 1 X_4_9 + 1 X_5_9 + 1 X_6_9 + 1 X_7_9
  + 1 X_8_9
  = 1
 mtz_1_2:
  + 1 U1 - 1 U2 + 9 X_1_2
  <= 8
 mtz_1_3:
  + 1 U1 - 1 U3 + 9 X_1_3
  <= 8
 mtz_1_4:
  + 1 U1 - 1 U4 + 9 X_1_4
  <= 8
 mtz_1_5:
  + 1 U1 - 1 U5 + 9 X_1_5
  <= 8
 mtz_1_6:
  + 1 U1 - 1 U6 + 9 X_1_6
  <= 8
 mtz_1_7:
  + 1 U1 - 1 U7 + 9 X_1_7
  <= 8
 mtz_1_8:
  + 1 U1 - 1 U8 + 9 X_1_8
  <= 8
 mtz_1_9:
  + 1 U1 - 1 U9 + 9 X_1_9
  <= 8
 mtz_2_1:
  + 1 U2 - 1 U1 + 9 X_2_1
  <= 8
 mtz_2_3:
  + 1 U2 - 1 U3 + 9 X_2_3
  <= 8
 mtz_2_4:
  + 1 U2 - 1 U4 + 9 X_2_4
  <= 8
 mtz_2_5:
  + 1 U2 - 1 U5 + 9 X_2_5
  <= 8
 mtz_2_6:
  + 1 U2 - 1 U6 + 9 X_2_6
  <= 8
 mtz_2_7:
  + 1 U2 - 1 U7 + 9 X_2_7
  <= 8
 mtz_2_8:
  + 1 U2 - 1 U8 + 9 X_2_8
  <= 8
 mtz_2_9:
  + 1 U2 - 1 U9 + 9 X_2_9
  <= 8
 mtz_3_1:
  + 1 U3 - 1 U1 + 9 X_3_1
  <= 8
 mtz_3_2:
  + 1 U3 - 1 U2 + 9 X_3_2
  <= 8
 mtz_3_4:
  + 1 U3 - 1 U4 + 9 X_3_4
  <= 8
 mtz_3_5:
  + 1 U3 - 1 U5 + 9 X_3_5
  <= 8
 mtz_3_6:
  + 1 U3 - 1 U6 + 9 X_3_6
  <= 8
 mtz_3_7:
  + 1 U3 - 1 U7 + 9 X_3_7
  <= 8
 mtz_3_8:
  + 1 U3 - 1 U8 + 9 X_3_8
  <= 8
 mtz_3_9:
  + 1 U3 - 1 U9 + 9 X_3_9
  <= 8
 mtz_4_1:
  + 1 U4 - 1 U1 + 9 X_4_1
  <= 8
 mtz_4_2:
  + 1 U4 - 1 U2 + 9 X_4_2
  <= 8
 mtz_4_3:
  + 1 U4 - 1 U3 + 9 X_4_3
  <= 8
 mtz_4_5:
  + 1 U4 - 1 U5 + 9 X_4_5
  <= 8
 mtz_4_6:
  + 1 U4 - 1 U6 + 9 X_4_6
  <= 8
 mtz_4_7:
  + 1 U4 - 1 U7 + 9 X_4_7
  <= 8
 mtz_4_8:
  + 1 U4 - 1 U8 + 9 X_4_8
  <= 8
 mtz_4_9:
  + 1 U4 - 1 U9 + 9 X_4_9
  <= 8
 mtz_5_1:
  + 1 U5 - 1 U1 + 9 X_5_1
  <= 8
 mtz_5_2:
  + 1 U5 - 1 U2 + 9 X_5_2
  <= 8
 mtz_5_3:
  + 1 U5 - 1 U3 + 9 X_5_3
  <= 8
 mtz_5_4:
  + 1 U5 - 1 U4 + 9 X_5_4
  <= 8
 mtz_5_6:
  + 1 U5 - 1 U6 + 9 X_5_6
  <= 8
 mtz_5_7:
  + 1 U5 - 1 U7 + 9 X_5_7
  <= 8
 mtz_5_8:
  + 1 U5 - 1 U8 + 9 X_5_8
  <= 8
 mtz_5_9:
  + 1 U5 - 1 U9 + 9 X_5_9
  <= 8
 mtz_6_1:
  + 1 U6 - 1 U1 + 9 X_6_1
  <= 8
 mtz_6_2:
  + 1 U6 - 1 U2 + 9 X_6_2
  <= 8
 mtz_6_3:
  + 1 U6 - 1 U3 + 9 X_6_3
  <= 8
 mtz_6_4:
  + 1 U6 - 1 U4 + 9 X_6_4
  <= 8
 mtz_6_5:
  + 1 U6 - 1 U5 + 9 X_6_5
  <= 8
 mtz_6_7:
  + 1 U6 - 1 U7 + 9 X_6_7
  <= 8
 mtz_6_8:
  + 1 U6 - 1 U8 + 9 X_6_8
  <= 8
 mtz_6_9:
  + 1 U6 - 1 U9 + 9 X_6_9
  <= 8
 mtz_7_1:
  + 1 U7 - 1 U1 + 9 X_7_1
  <= 8
 mtz_7_2:
  + 1 U7 - 1 U2 + 9 X_7_2
  <= 8
 mtz_7_3:
  + 1 U7 - 1 U3 + 9 X_7_3
  <= 8
 mtz_7_4:
  + 1 U7 - 1 U4 + 9 X_7_4
  <= 8
 mtz_7_5:
  + 1 U7 - 1 U5 + 9 X_7_5
  <= 8
 mtz_7_6:
  + 1 U7 - 1 U6 + 9 X_7_6
  <= 8
 mtz_7_8:
  + 1 U7 - 1 U8 + 9 X_7_8
  <= 8
 mtz_7_9:
  + 1 U7 - 1 U9 + 9 X_7_9
  <= 8
 mtz_8_1:
  + 1 U8 - 1 U1 + 9 X_8_1
  <= 8
 mtz_8_2:
  + 1 U8 - 1 U2 + 9 X_8_2
  <= 8
 mtz_8_3:
  + 1 U8 - 1 U3 + 9 X_8_3
  <= 8
 mtz_8_4:
  + 1 U8 - 1 U4 + 9 X_8_4
  <= 8
 mtz_8_5:
  + 1 U8 - 1 U5 + 9 X_8_5
  <= 8
 mtz_8_6:
  + 1 U8 - 1 U6 + 9 X_8_6
  <= 8
 mtz_8_7:
  + 1 U8 - 1 U7 + 9 X_8_7
  <= 8
 mtz_8_9:
  + 1 U8 - 1 U9 + 9 X_8_9
  <= 8
 mtz_9_1:
  + 1 U9 - 1 U1 + 9 X_9_1
  <= 8
 mtz_9_2:
  + 1 U9 - 1 U2 + 9 X_9_2
  <= 8
 mtz_9_3:
  + 1 U9 - 1 U3 + 9 X_9_3
  <= 8
 mtz_9_4:
  + 1 U9 - 1 U4 + 9 X_9_4
  <= 8
 mtz_9_5:
  + 1 U9 - 1 U5 + 9 X_9_5
  <= 8
 mtz_9_6:
  + 1 U9 - 1 U6 + 9 X_9_6
  <= 8
 mtz_9_7:
  + 1 U9 - 1 U7 + 9 X_9_7
  <= 8
 mtz_9_8:
  + 1 U9 - 1 U8 + 9 X_9_8
  <= 8
 obj1:
  + 217 X_0_1 + 541 X_0_2 + 415 X_0_3 + 716 X_0_4 + 336 X_0_5 + 540 X_0_6 + 416 X_0_7 + 450 X_0_8
  + 757 X_0_9 + 217 X_1_0 + 742 X_1_2 + 584 X_1_3 + 927 X_1_4 + 393 X_1_5 + 681 X_1_6 + 615 X_1_7
  + 525 X_1_8 + 876 X_1_9 + 541 X_2_0 + 742 X_2_1 + 214 X_2_3 + 208 X_2_4 + 504 X_2_5 + 729 X_2_6
  + 465 X_2_7 + 472 X_2_8 + 459 X_2_9 + 415 X_3_0 + 584 X_3_1 + 214 X_3_2 + 423 X_3_4 + 292 X_3_5
  + 767 X_3_6 + 520 X_3_7 + 261 X_3_8 + 374 X_3_9 + 716 X_4_0 + 927 X_4_1 + 208 X_4_2 + 423 X_4_3
  + 713 X_4_5 + 772 X_4_6 + 520 X_4_7 + 676 X_4_8 + 592 X_4_9 + 336 X_5_0 + 393 X_5_1 + 504 X_5_2
  + 292 X_5_3 + 713 X_5_4 + 849 X_5_6 + 658 X_5_7 + 131 X_5_8 + 489 X_5_9 + 540 X_6_0 + 681 X_6_1
  + 729 X_6_2 + 767 X_6_3 + 772 X_6_4 + 849 X_6_5 + 264 X_6_7 + 934 X_6_8 + 1138 X_6_9 + 416 X_7_0
  + 615 X_7_1 + 465 X_7_2 + 520 X_7_3 + 520 X_7_4 + 658 X_7_5 + 264 X_7_6 + 720 X_7_8 + 884 X_7_9
  + 450 X_8_0 + 525 X_8_1 + 472 X_8_2 + 261 X_8_3 + 676 X_8_4 + 131 X_8_5 + 934 X_8_6 + 720 X_8_7
  + 362 X_8_9 + 757 X_9_0 + 876 X_9_1 + 459 X_9_2 + 374 X_9_3 + 592 X_9_4 + 489 X_9_5 + 1138 X_9_6
  + 884 X_9_7 + 362 X_9_8
  <= 1
 obj2:
  + 763 X_0_1 + 562 X_0_2 + 253 X_0_3 + 286 X_0_4 + 160 X_0_5 + 479 X_0_6 + 573 X_0_7 + 111 X_0_8
  + 242 X_0_9 + 763 X_1_0 + 736 X_1_2 + 550 X_1_3 + 518 X_1_4 + 612 X_1_5 + 565 X_1_6 + 385 X_1_7
  + 869 X_1_8 + 812 X_1_9 + 562 X_2_0 + 736 X_2_1 + 627 X_2_3 + 633 X_2_4 + 472 X_2_5 + 181 X_2_6
  + 351 X_2_7 + 646 X_2_8 + 793 X_2_9 + 253 X_3_0 + 550 X_3_1 + 627 X_3_2 + 34 X_3_4 + 178 X_3_5
  + 480 X_3_6 + 482 X_3_7 + 339 X_3_8 + 269 X_3_9 + 286 X_4_0 + 518 X_4_1 + 633 X_4_2 + 34 X_4_3
  + 199 X_4_5 + 479 X_4_6 + 468 X_4_7 + 374 X_4_8 + 297 X_4_9 + 160 X_5_0 + 612 X_5_1 + 472 X_5_2
  + 178 X_5_3 + 199 X_5_4 + 351 X_5_6 + 418 X_5_7 + 271 X_5_8 + 332 X_5_9 + 479 X_6_0 + 565 X_6_1
  + 181 X_6_2 + 480 X_6_3 + 479 X_6_4 + 351 X_6_5 + 191 X_6_7 + 580 X_6_8 + 684 X_6_9 + 573 X_7_0
  + 385 X_7_1 + 351 X_7_2 + 482 X_7_3 + 468 X_7_4 + 418 X_7_5 + 191 X_7_6 + 683 X_7_8 + 731 X_7_9
  + 111 X_8_0 + 869 X_8_1 + 646 X_8_2 + 339 X_8_3 + 374 X_8_4 + 271 X_8_5 + 580 X_8_6 + 683 X_8_7
  + 224 X_8_9 + 242 X_9_0 + 812 X_9_1 + 793 X_9_2 + 269 X_9_3 + 297 X_9_4 + 332 X_9_5 + 684 X_9_6
  + 731 X_9_7 + 224 X_9_8
  <= 2
 obj3:
  + 773 X_0_1 + 646 X_0_2 + 575 X_0_3 + 558 X_0_4 + 657 X_0_5 + 177 X_0_6 + 630 X_0_7 + 788 X_0_8
  + 295 X_0_9 + 773 X_1_0 + 1138 X_1_2 + 199 X_1_3 + 217 X_1_4 + 131 X_1_5 + 780 X_1_6 + 1121 X_1_7
  + 211 X_1_8 + 479 X_1_9 + 646 X_2_0 + 1138 X_2_1 + 966 X_2_3 + 982 X_2_4 + 1007 X_2_5 + 820 X_2_6
  + 17 X_2_7 + 1025 X_2_8 + 768 X_2_9 + 575 X_3_0 + 199 X_3_1 + 966 X_3_2 + 49 X_3_4 + 88 X_3_5
  + 594 X_3_6 + 949 X_3_7 + 266 X_3_8 + 280 X_3_9 + 558 X_4_0 + 217 X_4_1 + 982 X_4_2 + 49 X_4_3
  + 129 X_4_5 + 564 X_4_6 + 965 X_4_7 + 312 X_4_8 + 267 X_4_9 + 657 X_5_0 + 131 X_5_1 + 1007 X_5_2
  + 88 X_5_3 + 129 X_5_4 + 683 X_5_6 + 991 X_5_7 + 186 X_5_8 + 362 X_5_9 + 177 X_6_0 + 780 X_6_1
  + 820 X_6_2 + 594 X_6_3 + 564 X_6_4 + 683 X_6_5 + 805 X_6_7 + 841 X_6_8 + 341 X_6_9 + 630 X_7_0
  + 1121 X_7_1 + 17 X_7_2 + 949 X_7_3 + 965 X_7_4 + 991 X_7_5 + 805 X_7_6 + 1010 X_7_8 + 751 X_7_9
  + 788 X_8_0 + 211 X_8_1 + 1025 X_8_2 + 266 X_8_3 + 312 X_8_4 + 186 X_8_5 + 841 X_8_6 + 1010 X_8_7
  + 503 X_8_9 + 295 X_9_0 + 479 X_9_1 + 768 X_9_2 + 280 X_9_3 + 267 X_9_4 + 362 X_9_5 + 341 X_9_6
  + 751 X_9_7 + 503 X_9_8
  <= 3
Bounds
 1 <= U1 <= 9
 1 <= U2 <= 9
 1 <= U3 <= 9
 1 <= U4 <= 9
 1 <= U5 <= 9
 1 <= U6 <= 9
 1 <= U7 <= 9
 1 <= U8 <= 9
 1 <= U9 <= 9
Binary
 X_0_1
 X_0_2
 X_0_3
 X_0_4
 X_0_5
 X_0_6
 X_0_7
 X_0_8
 X_0_9
 X_1_0
 X_1_2
 X_1_3
 X_1_4
 X_1_5
 X_1_6
 X_1_7
 X_1_8
 X_1_9
 X_2_0
 X_2_1
 X_2_3
 X_2_4
 X_2_5
 X_2_6
 X_2_7
 X_2_8
 X_2_9
 X_3_0
 X_3_1
 X_3_2
 X_3_4
 X_3_5
 X_3_6
 X_3_7
 X_3_8
 X_3_9
 X_4_0
 X_4_1
 X_4_2
 X_4_3
 X_4_5
 X_4_6
 X_4_7
 X_4_8
 X_4_9
 X_5_0
 X_5_1
 X_5_2
 X_5_3
 X_5_4
 X_5_6
 X_5_7
 X_5_8
 X_5_9
 X_6_0
 X_6_1
 X_6_2
 X_6_3
 X_6_4
 X_6_5
 X_6_7
 X_6_8
 X_6_9
 X_7_0
 X_7_1
 X_7_2
 X_7_3
 X_7_4
 X_7_5
 X_7_6
 X_7_8
 X_7_9
 X_8_0
 X_8_1
 X_8_2
 X_8_3
 X_8_4
 X_8_5
 X_8_6
 X_8_7
 X_8_9
 X_9_0
 X_9_1
 X_9_2
 X_9_3
 X_9_4
 X_9_5
 X_9_6
 X_9_7
 X_9_8
End
